\ENCODING=ISO-8859-1
\Problem name: IloCplex

Minimize
 obj: Dm + Z
Subject To
 c1:   Dm - X(0,0) - X(1,0) >= -1
 c2:   Dm - X(0,1) - X(1,1) >= -1
 c3:   Dm - X(0,2) - X(1,2) >= -1
 c4:   Dm - X(0,0) - X(2,0) >= -1
 c5:   Dm - X(0,1) - X(2,1) >= -1
 c6:   Dm - X(0,2) - X(2,2) >= -1
 c7:   Dm - X(1,0) - X(2,0) >= -1
 c8:   Dm - X(1,1) - X(2,1) >= -1
 c9:   Dm - X(1,2) - X(2,2) >= -1
 c10:  Dm - X(0,0) - X(3,0) >= -1
 c11:  Dm - X(0,1) - X(3,1) >= -1
 c12:  Dm - X(0,2) - X(3,2) >= -1
 c13:  Dm - X(1,0) - X(3,0) >= -1
 c14:  Dm - X(1,1) - X(3,1) >= -1
 c15:  Dm - X(1,2) - X(3,2) >= -1
 c16:  Dm - X(2,0) - X(3,0) >= -1
 c17:  Dm - X(2,1) - X(3,1) >= -1
 c18:  Dm - X(2,2) - X(3,2) >= -1
 c19:  Dm - X(0,0) - X(4,0) >= -1
 c20:  Dm - X(0,1) - X(4,1) >= -1
 c21:  Dm - X(0,2) - X(4,2) >= -1
 c22:  Dm - X(0,0) - X(5,0) >= -1
 c23:  Dm - X(0,1) - X(5,1) >= -1
 c24:  Dm - X(0,2) - X(5,2) >= -1
 c25:  Dm - X(0,0) - X(6,0) >= -1
 c26:  Dm - X(0,1) - X(6,1) >= -1
 c27:  Dm - X(0,2) - X(6,2) >= -1
 c28:  Dm - X(4,0) - X(6,0) >= -1
 c29:  Dm - X(4,1) - X(6,1) >= -1
 c30:  Dm - X(4,2) - X(6,2) >= -1
 c31:  Dm - X(5,0) - X(6,0) >= -1
 c32:  Dm - X(5,1) - X(6,1) >= -1
 c33:  Dm - X(5,2) - X(6,2) >= -1
 c34:  Dm - X(0,0) - X(7,0) >= -1
 c35:  Dm - X(0,1) - X(7,1) >= -1
 c36:  Dm - X(0,2) - X(7,2) >= -1
 c37:  Dm - X(1,0) - X(7,0) >= -1
 c38:  Dm - X(1,1) - X(7,1) >= -1
 c39:  Dm - X(1,2) - X(7,2) >= -1
 c40:  Dm - X(2,0) - X(7,0) >= -1
 c41:  Dm - X(2,1) - X(7,1) >= -1
 c42:  Dm - X(2,2) - X(7,2) >= -1
 c43:  Dm - X(3,0) - X(7,0) >= -1
 c44:  Dm - X(3,1) - X(7,1) >= -1
 c45:  Dm - X(3,2) - X(7,2) >= -1
 c46:  Dm - X(0,0) - X(8,0) >= -1
 c47:  Dm - X(0,1) - X(8,1) >= -1
 c48:  Dm - X(0,2) - X(8,2) >= -1
 c49:  Dm - X(2,0) - X(8,0) >= -1
 c50:  Dm - X(2,1) - X(8,1) >= -1
 c51:  Dm - X(2,2) - X(8,2) >= -1
 c52:  Dm - X(2,0) - X(9,0) >= -1
 c53:  Dm - X(2,1) - X(9,1) >= -1
 c54:  Dm - X(2,2) - X(9,2) >= -1
 c55:  Dm - X(0,0) - X(10,0) >= -1
 c56:  Dm - X(0,1) - X(10,1) >= -1
 c57:  Dm - X(0,2) - X(10,2) >= -1
 c58:  Dm - X(4,0) - X(10,0) >= -1
 c59:  Dm - X(4,1) - X(10,1) >= -1
 c60:  Dm - X(4,2) - X(10,2) >= -1
 c61:  Dm - X(5,0) - X(10,0) >= -1
 c62:  Dm - X(5,1) - X(10,1) >= -1
 c63:  Dm - X(5,2) - X(10,2) >= -1
 c64:  Dm - X(0,0) - X(11,0) >= -1
 c65:  Dm - X(0,1) - X(11,1) >= -1
 c66:  Dm - X(0,2) - X(11,2) >= -1
 c67:  Dm - X(0,0) - X(12,0) >= -1
 c68:  Dm - X(0,1) - X(12,1) >= -1
 c69:  Dm - X(0,2) - X(12,2) >= -1
 c70:  Dm - X(3,0) - X(12,0) >= -1
 c71:  Dm - X(3,1) - X(12,1) >= -1
 c72:  Dm - X(3,2) - X(12,2) >= -1
 c73:  Dm - X(0,0) - X(13,0) >= -1
 c74:  Dm - X(0,1) - X(13,1) >= -1
 c75:  Dm - X(0,2) - X(13,2) >= -1
 c76:  Dm - X(1,0) - X(13,0) >= -1
 c77:  Dm - X(1,1) - X(13,1) >= -1
 c78:  Dm - X(1,2) - X(13,2) >= -1
 c79:  Dm - X(2,0) - X(13,0) >= -1
 c80:  Dm - X(2,1) - X(13,1) >= -1
 c81:  Dm - X(2,2) - X(13,2) >= -1
 c82:  Dm - X(3,0) - X(13,0) >= -1
 c83:  Dm - X(3,1) - X(13,1) >= -1
 c84:  Dm - X(3,2) - X(13,2) >= -1
 c85:  Dm - X(5,0) - X(16,0) >= -1
 c86:  Dm - X(5,1) - X(16,1) >= -1
 c87:  Dm - X(5,2) - X(16,2) >= -1
 c88:  Dm - X(6,0) - X(16,0) >= -1
 c89:  Dm - X(6,1) - X(16,1) >= -1
 c90:  Dm - X(6,2) - X(16,2) >= -1
 c91:  Dm - X(0,0) - X(17,0) >= -1
 c92:  Dm - X(0,1) - X(17,1) >= -1
 c93:  Dm - X(0,2) - X(17,2) >= -1
 c94:  Dm - X(1,0) - X(17,0) >= -1
 c95:  Dm - X(1,1) - X(17,1) >= -1
 c96:  Dm - X(1,2) - X(17,2) >= -1
 c97:  Dm - X(0,0) - X(19,0) >= -1
 c98:  Dm - X(0,1) - X(19,1) >= -1
 c99:  Dm - X(0,2) - X(19,2) >= -1
 c100: Dm - X(1,0) - X(19,0) >= -1
 c101: Dm - X(1,1) - X(19,1) >= -1
 c102: Dm - X(1,2) - X(19,2) >= -1
 c103: Dm - X(0,0) - X(21,0) >= -1
 c104: Dm - X(0,1) - X(21,1) >= -1
 c105: Dm - X(0,2) - X(21,2) >= -1
 c106: Dm - X(1,0) - X(21,0) >= -1
 c107: Dm - X(1,1) - X(21,1) >= -1
 c108: Dm - X(1,2) - X(21,2) >= -1
 c109: Dm - X(23,0) - X(25,0) >= -1
 c110: Dm - X(23,1) - X(25,1) >= -1
 c111: Dm - X(23,2) - X(25,2) >= -1
 c112: Dm - X(25,0) - X(24,0) >= -1
 c113: Dm - X(25,1) - X(24,1) >= -1
 c114: Dm - X(25,2) - X(24,2) >= -1
 c115: Dm - X(2,0) - X(27,0) >= -1
 c116: Dm - X(2,1) - X(27,1) >= -1
 c117: Dm - X(2,2) - X(27,2) >= -1
 c118: Dm - X(23,0) - X(27,0) >= -1
 c119: Dm - X(23,1) - X(27,1) >= -1
 c120: Dm - X(23,2) - X(27,2) >= -1
 c121: Dm - X(24,0) - X(27,0) >= -1
 c122: Dm - X(24,1) - X(27,1) >= -1
 c123: Dm - X(24,2) - X(27,2) >= -1
 c124: Dm - X(2,0) - X(28,0) >= -1
 c125: Dm - X(2,1) - X(28,1) >= -1
 c126: Dm - X(2,2) - X(28,2) >= -1
 c127: Dm - X(23,0) - X(29,0) >= -1
 c128: Dm - X(23,1) - X(29,1) >= -1
 c129: Dm - X(23,2) - X(29,2) >= -1
 c130: Dm - X(29,0) - X(26,0) >= -1
 c131: Dm - X(29,1) - X(26,1) >= -1
 c132: Dm - X(29,2) - X(26,2) >= -1
 c133: Dm - X(1,0) - X(30,0) >= -1
 c134: Dm - X(1,1) - X(30,1) >= -1
 c135: Dm - X(1,2) - X(30,2) >= -1
 c136: Dm - X(8,0) - X(30,0) >= -1
 c137: Dm - X(8,1) - X(30,1) >= -1
 c138: Dm - X(8,2) - X(30,2) >= -1
 c139: Dm - X(0,0) - X(31,0) >= -1
 c140: Dm - X(0,1) - X(31,1) >= -1
 c141: Dm - X(0,2) - X(31,2) >= -1
 c142: Dm - X(24,0) - X(31,0) >= -1
 c143: Dm - X(24,1) - X(31,1) >= -1
 c144: Dm - X(24,2) - X(31,2) >= -1
 c145: Dm - X(25,0) - X(31,0) >= -1
 c146: Dm - X(25,1) - X(31,1) >= -1
 c147: Dm - X(25,2) - X(31,2) >= -1
 c148: Dm - X(28,0) - X(31,0) >= -1
 c149: Dm - X(28,1) - X(31,1) >= -1
 c150: Dm - X(28,2) - X(31,2) >= -1
 c151: Dm - X(2,0) - X(32,0) >= -1
 c152: Dm - X(2,1) - X(32,1) >= -1
 c153: Dm - X(2,2) - X(32,2) >= -1
 c154: Dm - X(8,0) - X(32,0) >= -1
 c155: Dm - X(8,1) - X(32,1) >= -1
 c156: Dm - X(8,2) - X(32,2) >= -1
 c157: Dm - X(32,0) - X(14,0) >= -1
 c158: Dm - X(32,1) - X(14,1) >= -1
 c159: Dm - X(32,2) - X(14,2) >= -1
 c160: Dm - X(32,0) - X(15,0) >= -1
 c161: Dm - X(32,1) - X(15,1) >= -1
 c162: Dm - X(32,2) - X(15,2) >= -1
 c163: Dm - X(32,0) - X(18,0) >= -1
 c164: Dm - X(32,1) - X(18,1) >= -1
 c165: Dm - X(32,2) - X(18,2) >= -1
 c166: Dm - X(32,0) - X(20,0) >= -1
 c167: Dm - X(32,1) - X(20,1) >= -1
 c168: Dm - X(32,2) - X(20,2) >= -1
 c169: Dm - X(32,0) - X(22,0) >= -1
 c170: Dm - X(32,1) - X(22,1) >= -1
 c171: Dm - X(32,2) - X(22,2) >= -1
 c172: Dm - X(23,0) - X(32,0) >= -1
 c173: Dm - X(23,1) - X(32,1) >= -1
 c174: Dm - X(23,2) - X(32,2) >= -1
 c175: Dm - X(29,0) - X(32,0) >= -1
 c176: Dm - X(29,1) - X(32,1) >= -1
 c177: Dm - X(29,2) - X(32,2) >= -1
 c178: Dm - X(30,0) - X(32,0) >= -1
 c179: Dm - X(30,1) - X(32,1) >= -1
 c180: Dm - X(30,2) - X(32,2) >= -1
 c181: Dm - X(31,0) - X(32,0) >= -1
 c182: Dm - X(31,1) - X(32,1) >= -1
 c183: Dm - X(31,2) - X(32,2) >= -1
 c184: Dm - X(8,0) - X(33,0) >= -1
 c185: Dm - X(8,1) - X(33,1) >= -1
 c186: Dm - X(8,2) - X(33,2) >= -1
 c187: Dm - X(9,0) - X(33,0) >= -1
 c188: Dm - X(9,1) - X(33,1) >= -1
 c189: Dm - X(9,2) - X(33,2) >= -1
 c190: Dm - X(13,0) - X(33,0) >= -1
 c191: Dm - X(13,1) - X(33,1) >= -1
 c192: Dm - X(13,2) - X(33,2) >= -1
 c193: Dm - X(14,0) - X(33,0) >= -1
 c194: Dm - X(14,1) - X(33,1) >= -1
 c195: Dm - X(14,2) - X(33,2) >= -1
 c196: Dm - X(15,0) - X(33,0) >= -1
 c197: Dm - X(15,1) - X(33,1) >= -1
 c198: Dm - X(15,2) - X(33,2) >= -1
 c199: Dm - X(18,0) - X(33,0) >= -1
 c200: Dm - X(18,1) - X(33,1) >= -1
 c201: Dm - X(18,2) - X(33,2) >= -1
 c202: Dm - X(19,0) - X(33,0) >= -1
 c203: Dm - X(19,1) - X(33,1) >= -1
 c204: Dm - X(19,2) - X(33,2) >= -1
 c205: Dm - X(20,0) - X(33,0) >= -1
 c206: Dm - X(20,1) - X(33,1) >= -1
 c207: Dm - X(20,2) - X(33,2) >= -1
 c208: Dm - X(22,0) - X(33,0) >= -1
 c209: Dm - X(22,1) - X(33,1) >= -1
 c210: Dm - X(22,2) - X(33,2) >= -1
 c211: Dm - X(23,0) - X(33,0) >= -1
 c212: Dm - X(23,1) - X(33,1) >= -1
 c213: Dm - X(23,2) - X(33,2) >= -1
 c214: Dm - X(26,0) - X(33,0) >= -1
 c215: Dm - X(26,1) - X(33,1) >= -1
 c216: Dm - X(26,2) - X(33,2) >= -1
 c217: Dm - X(27,0) - X(33,0) >= -1
 c218: Dm - X(27,1) - X(33,1) >= -1
 c219: Dm - X(27,2) - X(33,2) >= -1
 c220: Dm - X(28,0) - X(33,0) >= -1
 c221: Dm - X(28,1) - X(33,1) >= -1
 c222: Dm - X(28,2) - X(33,2) >= -1
 c223: Dm - X(29,0) - X(33,0) >= -1
 c224: Dm - X(29,1) - X(33,1) >= -1
 c225: Dm - X(29,2) - X(33,2) >= -1
 c226: Dm - X(30,0) - X(33,0) >= -1
 c227: Dm - X(30,1) - X(33,1) >= -1
 c228: Dm - X(30,2) - X(33,2) >= -1
 c229: Dm - X(31,0) - X(33,0) >= -1
 c230: Dm - X(31,1) - X(33,1) >= -1
 c231: Dm - X(31,2) - X(33,2) >= -1
 c232: Dm - X(32,0) - X(33,0) >= -1
 c233: Dm - X(32,1) - X(33,1) >= -1
 c234: Dm - X(32,2) - X(33,2) >= -1
 c235: X(0,0) + X(0,1) + X(0,2)  = 1
 c236: X(1,0) + X(1,1) + X(1,2)  = 1
 c237: X(2,0) + X(2,1) + X(2,2)  = 1
 c238: X(3,0) + X(3,1) + X(3,2)  = 1
 c239: X(4,0) + X(4,1) + X(4,2)  = 1
 c240: X(5,0) + X(5,1) + X(5,2)  = 1
 c241: X(6,0) + X(6,1) + X(6,2)  = 1
 c242: X(7,0) + X(7,1) + X(7,2)  = 1
 c243: X(8,0) + X(8,1) + X(8,2)  = 1
 c244: X(9,0) + X(9,1) + X(9,2)  = 1
 c245: X(10,0) + X(10,1) + X(10,2)  = 1
 c246: X(11,0) + X(11,1) + X(11,2)  = 1
 c247: X(12,0) + X(12,1) + X(12,2)  = 1
 c248: X(13,0) + X(13,1) + X(13,2)  = 1
 c249: X(14,0) + X(14,1) + X(14,2)  = 1
 c250: X(15,0) + X(15,1) + X(15,2)  = 1
 c251: X(16,0) + X(16,1) + X(16,2)  = 1
 c252: X(17,0) + X(17,1) + X(17,2)  = 1
 c253: X(18,0) + X(18,1) + X(18,2)  = 1
 c254: X(19,0) + X(19,1) + X(19,2)  = 1
 c255: X(20,0) + X(20,1) + X(20,2)  = 1
 c256: X(21,0) + X(21,1) + X(21,2)  = 1
 c257: X(22,0) + X(22,1) + X(22,2)  = 1
 c258: X(23,0) + X(23,1) + X(23,2)  = 1
 c259: X(24,0) + X(24,1) + X(24,2)  = 1
 c260: X(25,0) + X(25,1) + X(25,2)  = 1
 c261: X(26,0) + X(26,1) + X(26,2)  = 1
 c262: X(27,0) + X(27,1) + X(27,2)  = 1
 c263: X(28,0) + X(28,1) + X(28,2)  = 1
 c264: X(29,0) + X(29,1) + X(29,2)  = 1
 c265: X(30,0) + X(30,1) + X(30,2)  = 1
 c266: X(31,0) + X(31,1) + X(31,2)  = 1
 c267: X(32,0) + X(32,1) + X(32,2)  = 1
 c268: X(33,0) + X(33,1) + X(33,2)  = 1
 c269: X(0,0) + X(1,0) + X(2,0) + X(3,0) + X(4,0) + X(5,0) + X(6,0) + X(7,0)
       + X(8,0) + X(9,0) + X(10,0) + X(11,0) + X(12,0) + X(13,0) + X(16,0)
       + X(17,0) + X(19,0) + X(21,0) + X(23,0) + X(25,0) + X(24,0) + X(27,0)
       + X(28,0) + X(29,0) + X(26,0) + X(30,0) + X(31,0) + X(32,0) + X(14,0)
       + X(15,0) + X(18,0) + X(20,0) + X(22,0) + X(33,0) >= 1
 c270: X(0,1) + X(1,1) + X(2,1) + X(3,1) + X(4,1) + X(5,1) + X(6,1) + X(7,1)
       + X(8,1) + X(9,1) + X(10,1) + X(11,1) + X(12,1) + X(13,1) + X(16,1)
       + X(17,1) + X(19,1) + X(21,1) + X(23,1) + X(25,1) + X(24,1) + X(27,1)
       + X(28,1) + X(29,1) + X(26,1) + X(30,1) + X(31,1) + X(32,1) + X(14,1)
       + X(15,1) + X(18,1) + X(20,1) + X(22,1) + X(33,1) >= 1
 c271: X(0,2) + X(1,2) + X(2,2) + X(3,2) + X(4,2) + X(5,2) + X(6,2) + X(7,2)
       + X(8,2) + X(9,2) + X(10,2) + X(11,2) + X(12,2) + X(13,2) + X(16,2)
       + X(17,2) + X(19,2) + X(21,2) + X(23,2) + X(25,2) + X(24,2) + X(27,2)
       + X(28,2) + X(29,2) + X(26,2) + X(30,2) + X(31,2) + X(32,2) + X(14,2)
       + X(15,2) + X(18,2) + X(20,2) + X(22,2) + X(33,2) >= 1
 c272: - 8 X(0,0) + X(1,0) + X(2,0) + X(3,0) + X(4,0) + X(5,0) + X(6,0)
       + X(7,0) + X(8,0) + X(10,0) + X(11,0) + X(12,0) + X(13,0) + X(17,0)
       + X(19,0) + X(21,0) + X(31,0) >= 0
 c273: - 8 X(0,1) + X(1,1) + X(2,1) + X(3,1) + X(4,1) + X(5,1) + X(6,1)
       + X(7,1) + X(8,1) + X(10,1) + X(11,1) + X(12,1) + X(13,1) + X(17,1)
       + X(19,1) + X(21,1) + X(31,1) >= 0
 c274: - 8 X(0,2) + X(1,2) + X(2,2) + X(3,2) + X(4,2) + X(5,2) + X(6,2)
       + X(7,2) + X(8,2) + X(10,2) + X(11,2) + X(12,2) + X(13,2) + X(17,2)
       + X(19,2) + X(21,2) + X(31,2) >= 0
 c275: X(0,0) - 4.5 X(1,0) + X(2,0) + X(3,0) + X(7,0) + X(13,0) + X(17,0)
       + X(19,0) + X(21,0) + X(30,0) >= 0
 c276: X(0,1) - 4.5 X(1,1) + X(2,1) + X(3,1) + X(7,1) + X(13,1) + X(17,1)
       + X(19,1) + X(21,1) + X(30,1) >= 0
 c277: X(0,2) - 4.5 X(1,2) + X(2,2) + X(3,2) + X(7,2) + X(13,2) + X(17,2)
       + X(19,2) + X(21,2) + X(30,2) >= 0
 c278: X(0,0) + X(1,0) - 5 X(2,0) + X(3,0) + X(7,0) + X(8,0) + X(9,0) + X(13,0)
       + X(27,0) + X(28,0) + X(32,0) >= 0
 c279: X(0,1) + X(1,1) - 5 X(2,1) + X(3,1) + X(7,1) + X(8,1) + X(9,1) + X(13,1)
       + X(27,1) + X(28,1) + X(32,1) >= 0
 c280: X(0,2) + X(1,2) - 5 X(2,2) + X(3,2) + X(7,2) + X(8,2) + X(9,2) + X(13,2)
       + X(27,2) + X(28,2) + X(32,2) >= 0
 c281: X(0,0) + X(1,0) + X(2,0) - 3 X(3,0) + X(7,0) + X(12,0) + X(13,0) >= 0
 c282: X(0,1) + X(1,1) + X(2,1) - 3 X(3,1) + X(7,1) + X(12,1) + X(13,1) >= 0
 c283: X(0,2) + X(1,2) + X(2,2) - 3 X(3,2) + X(7,2) + X(12,2) + X(13,2) >= 0
 c284: X(0,0) - 1.5 X(4,0) + X(6,0) + X(10,0) >= 0
 c285: X(0,1) - 1.5 X(4,1) + X(6,1) + X(10,1) >= 0
 c286: X(0,2) - 1.5 X(4,2) + X(6,2) + X(10,2) >= 0
 c287: X(0,0) - 2 X(5,0) + X(6,0) + X(10,0) + X(16,0) >= 0
 c288: X(0,1) - 2 X(5,1) + X(6,1) + X(10,1) + X(16,1) >= 0
 c289: X(0,2) - 2 X(5,2) + X(6,2) + X(10,2) + X(16,2) >= 0
 c290: X(0,0) + X(4,0) + X(5,0) - 2 X(6,0) + X(16,0) >= 0
 c291: X(0,1) + X(4,1) + X(5,1) - 2 X(6,1) + X(16,1) >= 0
 c292: X(0,2) + X(4,2) + X(5,2) - 2 X(6,2) + X(16,2) >= 0
 c293: X(0,0) + X(1,0) + X(2,0) + X(3,0) - 2 X(7,0) >= 0
 c294: X(0,1) + X(1,1) + X(2,1) + X(3,1) - 2 X(7,1) >= 0
 c295: X(0,2) + X(1,2) + X(2,2) + X(3,2) - 2 X(7,2) >= 0
 c296: X(0,0) + X(2,0) - 2.5 X(8,0) + X(30,0) + X(32,0) + X(33,0) >= 0
 c297: X(0,1) + X(2,1) - 2.5 X(8,1) + X(30,1) + X(32,1) + X(33,1) >= 0
 c298: X(0,2) + X(2,2) - 2.5 X(8,2) + X(30,2) + X(32,2) + X(33,2) >= 0
 c299: X(2,0) - X(9,0) + X(33,0) >= 0
 c300: X(2,1) - X(9,1) + X(33,1) >= 0
 c301: X(2,2) - X(9,2) + X(33,2) >= 0
 c302: X(0,0) + X(4,0) + X(5,0) - 1.5 X(10,0) >= 0
 c303: X(0,1) + X(4,1) + X(5,1) - 1.5 X(10,1) >= 0
 c304: X(0,2) + X(4,2) + X(5,2) - 1.5 X(10,2) >= 0
 c305: X(0,0) - 0.5 X(11,0) >= 0
 c306: X(0,1) - 0.5 X(11,1) >= 0
 c307: X(0,2) - 0.5 X(11,2) >= 0
 c308: X(0,0) + X(3,0) - X(12,0) >= 0
 c309: X(0,1) + X(3,1) - X(12,1) >= 0
 c310: X(0,2) + X(3,2) - X(12,2) >= 0
 c311: X(0,0) + X(1,0) + X(2,0) + X(3,0) - 2.5 X(13,0) + X(33,0) >= 0
 c312: X(0,1) + X(1,1) + X(2,1) + X(3,1) - 2.5 X(13,1) + X(33,1) >= 0
 c313: X(0,2) + X(1,2) + X(2,2) + X(3,2) - 2.5 X(13,2) + X(33,2) >= 0
 c314: X(32,0) - X(14,0) + X(33,0) >= 0
 c315: X(32,1) - X(14,1) + X(33,1) >= 0
 c316: X(32,2) - X(14,2) + X(33,2) >= 0
 c317: X(32,0) - X(15,0) + X(33,0) >= 0
 c318: X(32,1) - X(15,1) + X(33,1) >= 0
 c319: X(32,2) - X(15,2) + X(33,2) >= 0
 c320: X(5,0) + X(6,0) - X(16,0) >= 0
 c321: X(5,1) + X(6,1) - X(16,1) >= 0
 c322: X(5,2) + X(6,2) - X(16,2) >= 0
 c323: X(0,0) + X(1,0) - X(17,0) >= 0
 c324: X(0,1) + X(1,1) - X(17,1) >= 0
 c325: X(0,2) + X(1,2) - X(17,2) >= 0
 c326: X(32,0) - X(18,0) + X(33,0) >= 0
 c327: X(32,1) - X(18,1) + X(33,1) >= 0
 c328: X(32,2) - X(18,2) + X(33,2) >= 0
 c329: X(0,0) + X(1,0) - 1.5 X(19,0) + X(33,0) >= 0
 c330: X(0,1) + X(1,1) - 1.5 X(19,1) + X(33,1) >= 0
 c331: X(0,2) + X(1,2) - 1.5 X(19,2) + X(33,2) >= 0
 c332: X(32,0) - X(20,0) + X(33,0) >= 0
 c333: X(32,1) - X(20,1) + X(33,1) >= 0
 c334: X(32,2) - X(20,2) + X(33,2) >= 0
 c335: X(0,0) + X(1,0) - X(21,0) >= 0
 c336: X(0,1) + X(1,1) - X(21,1) >= 0
 c337: X(0,2) + X(1,2) - X(21,2) >= 0
 c338: X(32,0) - X(22,0) + X(33,0) >= 0
 c339: X(32,1) - X(22,1) + X(33,1) >= 0
 c340: X(32,2) - X(22,2) + X(33,2) >= 0
 c341: - 2.5 X(23,0) + X(25,0) + X(27,0) + X(29,0) + X(32,0) + X(33,0) >= 0
 c342: - 2.5 X(23,1) + X(25,1) + X(27,1) + X(29,1) + X(32,1) + X(33,1) >= 0
 c343: - 2.5 X(23,2) + X(25,2) + X(27,2) + X(29,2) + X(32,2) + X(33,2) >= 0
 c344: X(25,0) - 1.5 X(24,0) + X(27,0) + X(31,0) >= 0
 c345: X(25,1) - 1.5 X(24,1) + X(27,1) + X(31,1) >= 0
 c346: X(25,2) - 1.5 X(24,2) + X(27,2) + X(31,2) >= 0
 c347: X(23,0) - 1.5 X(25,0) + X(24,0) + X(31,0) >= 0
 c348: X(23,1) - 1.5 X(25,1) + X(24,1) + X(31,1) >= 0
 c349: X(23,2) - 1.5 X(25,2) + X(24,2) + X(31,2) >= 0
 c350: X(29,0) - X(26,0) + X(33,0) >= 0
 c351: X(29,1) - X(26,1) + X(33,1) >= 0
 c352: X(29,2) - X(26,2) + X(33,2) >= 0
 c353: X(2,0) + X(23,0) + X(24,0) - 2 X(27,0) + X(33,0) >= 0
 c354: X(2,1) + X(23,1) + X(24,1) - 2 X(27,1) + X(33,1) >= 0
 c355: X(2,2) + X(23,2) + X(24,2) - 2 X(27,2) + X(33,2) >= 0
 c356: X(2,0) - 1.5 X(28,0) + X(31,0) + X(33,0) >= 0
 c357: X(2,1) - 1.5 X(28,1) + X(31,1) + X(33,1) >= 0
 c358: X(2,2) - 1.5 X(28,2) + X(31,2) + X(33,2) >= 0
 c359: X(23,0) - 2 X(29,0) + X(26,0) + X(32,0) + X(33,0) >= 0
 c360: X(23,1) - 2 X(29,1) + X(26,1) + X(32,1) + X(33,1) >= 0
 c361: X(23,2) - 2 X(29,2) + X(26,2) + X(32,2) + X(33,2) >= 0
 c362: X(1,0) + X(8,0) - 2 X(30,0) + X(32,0) + X(33,0) >= 0
 c363: X(1,1) + X(8,1) - 2 X(30,1) + X(32,1) + X(33,1) >= 0
 c364: X(1,2) + X(8,2) - 2 X(30,2) + X(32,2) + X(33,2) >= 0
 c365: X(0,0) + X(25,0) + X(24,0) + X(28,0) - 3 X(31,0) + X(32,0) + X(33,0)
       >= 0
 c366: X(0,1) + X(25,1) + X(24,1) + X(28,1) - 3 X(31,1) + X(32,1) + X(33,1)
       >= 0
 c367: X(0,2) + X(25,2) + X(24,2) + X(28,2) - 3 X(31,2) + X(32,2) + X(33,2)
       >= 0
 c368: X(2,0) + X(8,0) + X(23,0) + X(29,0) + X(30,0) + X(31,0) - 6 X(32,0)
       + X(14,0) + X(15,0) + X(18,0) + X(20,0) + X(22,0) + X(33,0) >= 0
 c369: X(2,1) + X(8,1) + X(23,1) + X(29,1) + X(30,1) + X(31,1) - 6 X(32,1)
       + X(14,1) + X(15,1) + X(18,1) + X(20,1) + X(22,1) + X(33,1) >= 0
 c370: X(2,2) + X(8,2) + X(23,2) + X(29,2) + X(30,2) + X(31,2) - 6 X(32,2)
       + X(14,2) + X(15,2) + X(18,2) + X(20,2) + X(22,2) + X(33,2) >= 0
 c371: X(8,0) + X(9,0) + X(13,0) + X(19,0) + X(23,0) + X(27,0) + X(28,0)
       + X(29,0) + X(26,0) + X(30,0) + X(31,0) + X(32,0) + X(14,0) + X(15,0)
       + X(18,0) + X(20,0) + X(22,0) - 8.5 X(33,0) >= 0
 c372: X(8,1) + X(9,1) + X(13,1) + X(19,1) + X(23,1) + X(27,1) + X(28,1)
       + X(29,1) + X(26,1) + X(30,1) + X(31,1) + X(32,1) + X(14,1) + X(15,1)
       + X(18,1) + X(20,1) + X(22,1) - 8.5 X(33,1) >= 0
 c373: X(8,2) + X(9,2) + X(13,2) + X(19,2) + X(23,2) + X(27,2) + X(28,2)
       + X(29,2) + X(26,2) + X(30,2) + X(31,2) + X(32,2) + X(14,2) + X(15,2)
       + X(18,2) + X(20,2) + X(22,2) - 8.5 X(33,2) >= 0
 c374: Z - 15 X(0,0) + X(1,0) + X(2,0) + X(3,0) + X(4,0) + X(5,0) + X(6,0)
       + X(7,0) + X(8,0) + X(9,0) + X(10,0) + X(11,0) + X(12,0) + X(13,0)
       + X(14,0) + X(15,0) >= 0
 c375: Z - 15 X(0,1) + X(1,1) + X(2,1) + X(3,1) + X(4,1) + X(5,1) + X(6,1)
       + X(7,1) + X(8,1) + X(9,1) + X(10,1) + X(11,1) + X(12,1) + X(13,1)
       + X(14,1) + X(15,1) >= 0
 c376: Z - 15 X(0,2) + X(1,2) + X(2,2) + X(3,2) + X(4,2) + X(5,2) + X(6,2)
       + X(7,2) + X(8,2) + X(9,2) + X(10,2) + X(11,2) + X(12,2) + X(13,2)
       + X(14,2) + X(15,2) >= 0
 c377: Z + X(0,0) - 8 X(1,0) + X(2,0) + X(3,0) + X(4,0) + X(5,0) + X(6,0)
       + X(7,0) + X(8,0) >= 0
 c378: Z + X(0,1) - 8 X(1,1) + X(2,1) + X(3,1) + X(4,1) + X(5,1) + X(6,1)
       + X(7,1) + X(8,1) >= 0
 c379: Z + X(0,2) - 8 X(1,2) + X(2,2) + X(3,2) + X(4,2) + X(5,2) + X(6,2)
       + X(7,2) + X(8,2) >= 0
 c380: Z + X(0,0) + X(1,0) - 9 X(2,0) + X(3,0) + X(4,0) + X(5,0) + X(6,0)
       + X(7,0) + X(8,0) + X(9,0) >= 0
 c381: Z + X(0,1) + X(1,1) - 9 X(2,1) + X(3,1) + X(4,1) + X(5,1) + X(6,1)
       + X(7,1) + X(8,1) + X(9,1) >= 0
 c382: Z + X(0,2) + X(1,2) - 9 X(2,2) + X(3,2) + X(4,2) + X(5,2) + X(6,2)
       + X(7,2) + X(8,2) + X(9,2) >= 0
 c383: Z + X(0,0) + X(1,0) + X(2,0) - 5 X(3,0) + X(4,0) + X(5,0) >= 0
 c384: Z + X(0,1) + X(1,1) + X(2,1) - 5 X(3,1) + X(4,1) + X(5,1) >= 0
 c385: Z + X(0,2) + X(1,2) + X(2,2) - 5 X(3,2) + X(4,2) + X(5,2) >= 0
 c386: Z + X(0,0) + X(1,0) + X(2,0) - 3 X(4,0) >= 0
 c387: Z + X(0,1) + X(1,1) + X(2,1) - 3 X(4,1) >= 0
 c388: Z + X(0,2) + X(1,2) + X(2,2) - 3 X(4,2) >= 0
 c389: Z + X(0,0) + X(1,0) + X(2,0) + X(3,0) - 4 X(5,0) >= 0
 c390: Z + X(0,1) + X(1,1) + X(2,1) + X(3,1) - 4 X(5,1) >= 0
 c391: Z + X(0,2) + X(1,2) + X(2,2) + X(3,2) - 4 X(5,2) >= 0
 c392: Z + X(0,0) + X(1,0) + X(2,0) + X(3,0) - 4 X(6,0) >= 0
 c393: Z + X(0,1) + X(1,1) + X(2,1) + X(3,1) - 4 X(6,1) >= 0
 c394: Z + X(0,2) + X(1,2) + X(2,2) + X(3,2) - 4 X(6,2) >= 0
 c395: Z + X(0,0) + X(1,0) + X(2,0) + X(3,0) - 4 X(7,0) >= 0
 c396: Z + X(0,1) + X(1,1) + X(2,1) + X(3,1) - 4 X(7,1) >= 0
 c397: Z + X(0,2) + X(1,2) + X(2,2) + X(3,2) - 4 X(7,2) >= 0
 c398: Z + X(0,0) + X(1,0) + X(2,0) + X(3,0) + X(4,0) - 5 X(8,0) >= 0
 c399: Z + X(0,1) + X(1,1) + X(2,1) + X(3,1) + X(4,1) - 5 X(8,1) >= 0
 c400: Z + X(0,2) + X(1,2) + X(2,2) + X(3,2) + X(4,2) - 5 X(8,2) >= 0
 c401: Z + X(0,0) + X(1,0) - 2 X(9,0) >= 0
 c402: Z + X(0,1) + X(1,1) - 2 X(9,1) >= 0
 c403: Z + X(0,2) + X(1,2) - 2 X(9,2) >= 0
 c404: Z + X(0,0) + X(1,0) + X(2,0) - 3 X(10,0) >= 0
 c405: Z + X(0,1) + X(1,1) + X(2,1) - 3 X(10,1) >= 0
 c406: Z + X(0,2) + X(1,2) + X(2,2) - 3 X(10,2) >= 0
 c407: Z + X(0,0) - X(11,0) >= 0
 c408: Z + X(0,1) - X(11,1) >= 0
 c409: Z + X(0,2) - X(11,2) >= 0
 c410: Z + X(0,0) + X(1,0) - 2 X(12,0) >= 0
 c411: Z + X(0,1) + X(1,1) - 2 X(12,1) >= 0
 c412: Z + X(0,2) + X(1,2) - 2 X(12,2) >= 0
 c413: Z + X(0,0) + X(1,0) + X(2,0) + X(3,0) + X(4,0) - 5 X(13,0) >= 0
 c414: Z + X(0,1) + X(1,1) + X(2,1) + X(3,1) + X(4,1) - 5 X(13,1) >= 0
 c415: Z + X(0,2) + X(1,2) + X(2,2) + X(3,2) + X(4,2) - 5 X(13,2) >= 0
 c416: Z + X(0,0) + X(1,0) - 2 X(14,0) >= 0
 c417: Z + X(0,1) + X(1,1) - 2 X(14,1) >= 0
 c418: Z + X(0,2) + X(1,2) - 2 X(14,2) >= 0
 c419: Z + X(0,0) + X(1,0) - 2 X(15,0) >= 0
 c420: Z + X(0,1) + X(1,1) - 2 X(15,1) >= 0
 c421: Z + X(0,2) + X(1,2) - 2 X(15,2) >= 0
 c422: Z + X(0,0) + X(1,0) - 2 X(16,0) >= 0
 c423: Z + X(0,1) + X(1,1) - 2 X(16,1) >= 0
 c424: Z + X(0,2) + X(1,2) - 2 X(16,2) >= 0
 c425: Z + X(0,0) + X(1,0) - 2 X(17,0) >= 0
 c426: Z + X(0,1) + X(1,1) - 2 X(17,1) >= 0
 c427: Z + X(0,2) + X(1,2) - 2 X(17,2) >= 0
 c428: Z + X(0,0) + X(1,0) - 2 X(18,0) >= 0
 c429: Z + X(0,1) + X(1,1) - 2 X(18,1) >= 0
 c430: Z + X(0,2) + X(1,2) - 2 X(18,2) >= 0
 c431: Z + X(0,0) + X(1,0) + X(2,0) - 3 X(19,0) >= 0
 c432: Z + X(0,1) + X(1,1) + X(2,1) - 3 X(19,1) >= 0
 c433: Z + X(0,2) + X(1,2) + X(2,2) - 3 X(19,2) >= 0
 c434: Z + X(0,0) + X(1,0) - 2 X(20,0) >= 0
 c435: Z + X(0,1) + X(1,1) - 2 X(20,1) >= 0
 c436: Z + X(0,2) + X(1,2) - 2 X(20,2) >= 0
 c437: Z + X(0,0) + X(1,0) - 2 X(21,0) >= 0
 c438: Z + X(0,1) + X(1,1) - 2 X(21,1) >= 0
 c439: Z + X(0,2) + X(1,2) - 2 X(21,2) >= 0
 c440: Z + X(0,0) + X(1,0) - 2 X(22,0) >= 0
 c441: Z + X(0,1) + X(1,1) - 2 X(22,1) >= 0
 c442: Z + X(0,2) + X(1,2) - 2 X(22,2) >= 0
 c443: Z + X(0,0) + X(1,0) + X(2,0) + X(3,0) + X(4,0) - 5 X(23,0) >= 0
 c444: Z + X(0,1) + X(1,1) + X(2,1) + X(3,1) + X(4,1) - 5 X(23,1) >= 0
 c445: Z + X(0,2) + X(1,2) + X(2,2) + X(3,2) + X(4,2) - 5 X(23,2) >= 0
 c446: Z + X(0,0) + X(1,0) + X(2,0) - 3 X(24,0) >= 0
 c447: Z + X(0,1) + X(1,1) + X(2,1) - 3 X(24,1) >= 0
 c448: Z + X(0,2) + X(1,2) + X(2,2) - 3 X(24,2) >= 0
 c449: Z + X(0,0) + X(1,0) + X(2,0) - 3 X(25,0) >= 0
 c450: Z + X(0,1) + X(1,1) + X(2,1) - 3 X(25,1) >= 0
 c451: Z + X(0,2) + X(1,2) + X(2,2) - 3 X(25,2) >= 0
 c452: Z + X(0,0) + X(1,0) - 2 X(26,0) >= 0
 c453: Z + X(0,1) + X(1,1) - 2 X(26,1) >= 0
 c454: Z + X(0,2) + X(1,2) - 2 X(26,2) >= 0
 c455: Z + X(0,0) + X(1,0) + X(2,0) + X(3,0) - 4 X(27,0) >= 0
 c456: Z + X(0,1) + X(1,1) + X(2,1) + X(3,1) - 4 X(27,1) >= 0
 c457: Z + X(0,2) + X(1,2) + X(2,2) + X(3,2) - 4 X(27,2) >= 0
 c458: Z + X(0,0) + X(1,0) + X(2,0) - 3 X(28,0) >= 0
 c459: Z + X(0,1) + X(1,1) + X(2,1) - 3 X(28,1) >= 0
 c460: Z + X(0,2) + X(1,2) + X(2,2) - 3 X(28,2) >= 0
 c461: Z + X(0,0) + X(1,0) + X(2,0) + X(3,0) - 4 X(29,0) >= 0
 c462: Z + X(0,1) + X(1,1) + X(2,1) + X(3,1) - 4 X(29,1) >= 0
 c463: Z + X(0,2) + X(1,2) + X(2,2) + X(3,2) - 4 X(29,2) >= 0
 c464: Z + X(0,0) + X(1,0) + X(2,0) + X(3,0) - 4 X(30,0) >= 0
 c465: Z + X(0,1) + X(1,1) + X(2,1) + X(3,1) - 4 X(30,1) >= 0
 c466: Z + X(0,2) + X(1,2) + X(2,2) + X(3,2) - 4 X(30,2) >= 0
 c467: Z + X(0,0) + X(1,0) + X(2,0) + X(3,0) + X(4,0) + X(5,0) - 6 X(31,0) >= 0
 c468: Z + X(0,1) + X(1,1) + X(2,1) + X(3,1) + X(4,1) + X(5,1) - 6 X(31,1) >= 0
 c469: Z + X(0,2) + X(1,2) + X(2,2) + X(3,2) + X(4,2) + X(5,2) - 6 X(31,2) >= 0
 c470: Z + X(0,0) + X(1,0) + X(2,0) + X(3,0) + X(4,0) + X(5,0) + X(6,0)
       + X(7,0) + X(8,0) + X(9,0) + X(10,0) + X(11,0) - 12 X(32,0) >= 0
 c471: Z + X(0,1) + X(1,1) + X(2,1) + X(3,1) + X(4,1) + X(5,1) + X(6,1)
       + X(7,1) + X(8,1) + X(9,1) + X(10,1) + X(11,1) - 12 X(32,1) >= 0
 c472: Z + X(0,2) + X(1,2) + X(2,2) + X(3,2) + X(4,2) + X(5,2) + X(6,2)
       + X(7,2) + X(8,2) + X(9,2) + X(10,2) + X(11,2) - 12 X(32,2) >= 0
 c473: Z + X(0,0) + X(1,0) + X(2,0) + X(3,0) + X(4,0) + X(5,0) + X(6,0)
       + X(7,0) + X(8,0) + X(9,0) + X(10,0) + X(11,0) + X(12,0) + X(13,0)
       + X(16,0) + X(14,0) + X(15,0) - 17 X(33,0) >= 0
 c474: Z + X(0,1) + X(1,1) + X(2,1) + X(3,1) + X(4,1) + X(5,1) + X(6,1)
       + X(7,1) + X(8,1) + X(9,1) + X(10,1) + X(11,1) + X(12,1) + X(13,1)
       + X(16,1) + X(14,1) + X(15,1) - 17 X(33,1) >= 0
 c475: Z + X(0,2) + X(1,2) + X(2,2) + X(3,2) + X(4,2) + X(5,2) + X(6,2)
       + X(7,2) + X(8,2) + X(9,2) + X(10,2) + X(11,2) + X(12,2) + X(13,2)
       + X(16,2) + X(14,2) + X(15,2) - 17 X(33,2) >= 0
Bounds
      Dm >= 0
      Z >= 0
 0 <= X(0,0) <= 1
 0 <= X(1,0) <= 1
 0 <= X(0,1) <= 1
 0 <= X(1,1) <= 1
 0 <= X(0,2) <= 1
 0 <= X(1,2) <= 1
 0 <= X(2,0) <= 1
 0 <= X(2,1) <= 1
 0 <= X(2,2) <= 1
 0 <= X(3,0) <= 1
 0 <= X(3,1) <= 1
 0 <= X(3,2) <= 1
 0 <= X(4,0) <= 1
 0 <= X(4,1) <= 1
 0 <= X(4,2) <= 1
 0 <= X(5,0) <= 1
 0 <= X(5,1) <= 1
 0 <= X(5,2) <= 1
 0 <= X(6,0) <= 1
 0 <= X(6,1) <= 1
 0 <= X(6,2) <= 1
 0 <= X(7,0) <= 1
 0 <= X(7,1) <= 1
 0 <= X(7,2) <= 1
 0 <= X(8,0) <= 1
 0 <= X(8,1) <= 1
 0 <= X(8,2) <= 1
 0 <= X(9,0) <= 1
 0 <= X(9,1) <= 1
 0 <= X(9,2) <= 1
 0 <= X(10,0) <= 1
 0 <= X(10,1) <= 1
 0 <= X(10,2) <= 1
 0 <= X(11,0) <= 1
 0 <= X(11,1) <= 1
 0 <= X(11,2) <= 1
 0 <= X(12,0) <= 1
 0 <= X(12,1) <= 1
 0 <= X(12,2) <= 1
 0 <= X(13,0) <= 1
 0 <= X(13,1) <= 1
 0 <= X(13,2) <= 1
 0 <= X(16,0) <= 1
 0 <= X(16,1) <= 1
 0 <= X(16,2) <= 1
 0 <= X(17,0) <= 1
 0 <= X(17,1) <= 1
 0 <= X(17,2) <= 1
 0 <= X(19,0) <= 1
 0 <= X(19,1) <= 1
 0 <= X(19,2) <= 1
 0 <= X(21,0) <= 1
 0 <= X(21,1) <= 1
 0 <= X(21,2) <= 1
 0 <= X(23,0) <= 1
 0 <= X(25,0) <= 1
 0 <= X(23,1) <= 1
 0 <= X(25,1) <= 1
 0 <= X(23,2) <= 1
 0 <= X(25,2) <= 1
 0 <= X(24,0) <= 1
 0 <= X(24,1) <= 1
 0 <= X(24,2) <= 1
 0 <= X(27,0) <= 1
 0 <= X(27,1) <= 1
 0 <= X(27,2) <= 1
 0 <= X(28,0) <= 1
 0 <= X(28,1) <= 1
 0 <= X(28,2) <= 1
 0 <= X(29,0) <= 1
 0 <= X(29,1) <= 1
 0 <= X(29,2) <= 1
 0 <= X(26,0) <= 1
 0 <= X(26,1) <= 1
 0 <= X(26,2) <= 1
 0 <= X(30,0) <= 1
 0 <= X(30,1) <= 1
 0 <= X(30,2) <= 1
 0 <= X(31,0) <= 1
 0 <= X(31,1) <= 1
 0 <= X(31,2) <= 1
 0 <= X(32,0) <= 1
 0 <= X(32,1) <= 1
 0 <= X(32,2) <= 1
 0 <= X(14,0) <= 1
 0 <= X(14,1) <= 1
 0 <= X(14,2) <= 1
 0 <= X(15,0) <= 1
 0 <= X(15,1) <= 1
 0 <= X(15,2) <= 1
 0 <= X(18,0) <= 1
 0 <= X(18,1) <= 1
 0 <= X(18,2) <= 1
 0 <= X(20,0) <= 1
 0 <= X(20,1) <= 1
 0 <= X(20,2) <= 1
 0 <= X(22,0) <= 1
 0 <= X(22,1) <= 1
 0 <= X(22,2) <= 1
 0 <= X(33,0) <= 1
 0 <= X(33,1) <= 1
 0 <= X(33,2) <= 1
Binaries
 X(0,0)  X(1,0)  X(0,1)  X(1,1)  X(0,2)  X(1,2)  X(2,0)  X(2,1)  X(2,2) 
 X(3,0)  X(3,1)  X(3,2)  X(4,0)  X(4,1)  X(4,2)  X(5,0)  X(5,1)  X(5,2) 
 X(6,0)  X(6,1)  X(6,2)  X(7,0)  X(7,1)  X(7,2)  X(8,0)  X(8,1)  X(8,2) 
 X(9,0)  X(9,1)  X(9,2)  X(10,0)  X(10,1)  X(10,2)  X(11,0)  X(11,1)  X(11,2) 
 X(12,0)  X(12,1)  X(12,2)  X(13,0)  X(13,1)  X(13,2)  X(16,0)  X(16,1) 
 X(16,2)  X(17,0)  X(17,1)  X(17,2)  X(19,0)  X(19,1)  X(19,2)  X(21,0) 
 X(21,1)  X(21,2)  X(23,0)  X(25,0)  X(23,1)  X(25,1)  X(23,2)  X(25,2) 
 X(24,0)  X(24,1)  X(24,2)  X(27,0)  X(27,1)  X(27,2)  X(28,0)  X(28,1) 
 X(28,2)  X(29,0)  X(29,1)  X(29,2)  X(26,0)  X(26,1)  X(26,2)  X(30,0) 
 X(30,1)  X(30,2)  X(31,0)  X(31,1)  X(31,2)  X(32,0)  X(32,1)  X(32,2) 
 X(14,0)  X(14,1)  X(14,2)  X(15,0)  X(15,1)  X(15,2)  X(18,0)  X(18,1) 
 X(18,2)  X(20,0)  X(20,1)  X(20,2)  X(22,0)  X(22,1)  X(22,2)  X(33,0) 
 X(33,1)  X(33,2) 
Generals
 Dm  Z 
End
